(declare-fun c_0 () Int)
(assert (and (< c_0 125) (>= c_0 0)))
(declare-fun c_1 () Int)
(assert (and (< c_1 40) (>= c_1 0)))
(declare-fun c_2 () Int)
(assert (and (< c_2 75) (>= c_2 0)))
(declare-fun c_3 () Int)
(assert (and (< c_3 35) (>= c_3 0)))
(declare-fun c_4 () Int)
(assert (and (< c_4 125) (>= c_4 0)))
(declare-fun c_5 () Int)
(assert (and (< c_5 125) (>= c_5 0)))
(declare-fun c_6 () Int)
(assert (and (< c_6 125) (>= c_6 0)))
(declare-fun c_7 () Int)
(assert (and (< c_7 125) (>= c_7 0)))
(declare-fun c_8 () Int)
(assert (and (< c_8 30) (>= c_8 0)))
(declare-fun c_9 () Int)
(assert (and (< c_9 30) (>= c_9 0)))
(declare-fun c_10 () Int)
(assert (and (< c_10 125) (>= c_10 0)))
(declare-fun c_11 () Int)
(assert (and (< c_11 125) (>= c_11 0)))
(declare-fun c_12 () Int)
(assert (and (< c_12 75) (>= c_12 0)))
(declare-fun c_13 () Int)
(assert (and (< c_13 125) (>= c_13 0)))
(declare-fun c_14 () Int)
(assert (and (< c_14 40) (>= c_14 0)))
(declare-fun c_15 () Int)
(assert (and (< c_15 125) (>= c_15 0)))
(declare-fun c_16 () Int)
(assert (and (< c_16 125) (>= c_16 0)))
(declare-fun c_17 () Int)
(assert (and (< c_17 125) (>= c_17 0)))
(declare-fun c_18 () Int)
(assert (and (< c_18 125) (>= c_18 0)))
(declare-fun c_19 () Int)
(assert (and (< c_19 30) (>= c_19 0)))
(declare-fun c_20 () Int)
(assert (and (< c_20 125) (>= c_20 0)))
(declare-fun c_21 () Int)
(assert (and (< c_21 75) (>= c_21 0)))
(declare-fun c_22 () Int)
(assert (and (< c_22 30) (>= c_22 0)))
(declare-fun c_23 () Int)
(assert (and (< c_23 125) (>= c_23 0)))
(declare-fun c_24 () Int)
(assert (and (< c_24 35) (>= c_24 0)))
(declare-fun c_25 () Int)
(assert (and (< c_25 125) (>= c_25 0)))
(declare-fun c_26 () Int)
(assert (and (< c_26 125) (>= c_26 0)))
(declare-fun c_27 () Int)
(assert (and (< c_27 125) (>= c_27 0)))
(declare-fun c_28 () Int)
(assert (and (< c_28 125) (>= c_28 0)))
(declare-fun c_29 () Int)
(assert (and (< c_29 30) (>= c_29 0)))
(declare-fun c_30 () Int)
(assert (and (< c_30 125) (>= c_30 0)))
(declare-fun c_31 () Int)
(assert (and (< c_31 75) (>= c_31 0)))
(declare-fun c_32 () Int)
(assert (and (< c_32 125) (>= c_32 0)))
(declare-fun c_33 () Int)
(assert (and (< c_33 35) (>= c_33 0)))
(declare-fun c_34 () Int)
(assert (and (< c_34 35) (>= c_34 0)))
(declare-fun c_35 () Int)
(assert (and (< c_35 125) (>= c_35 0)))
(declare-fun c_36 () Int)
(assert (and (< c_36 125) (>= c_36 0)))
(assert (not (or (= c_1 c_14) (= c_14 c_1))))
(assert (not (or (or (or (or (or (or (or (or (or (or (or (= c_2 c_12) (= c_2 c_21)) (= c_2 c_31)) (= c_12 c_2)) (= c_12 c_21)) (= c_12 c_31)) (= c_21 c_2)) (= c_21 c_12)) (= c_21 c_31)) (= c_31 c_2)) (= c_31 c_12)) (= c_31 c_21))))
(assert (not (or (or (or (or (or (or (or (or (or (or (or (= c_3 c_24) (= c_3 c_33)) (= c_3 c_34)) (= c_24 c_3)) (= c_24 c_33)) (= c_24 c_34)) (= c_33 c_3)) (= c_33 c_24)) (= c_33 c_34)) (= c_34 c_3)) (= c_34 c_24)) (= c_34 c_33))))
(assert (not (or (or (or (or (or (or (or (or (or (or (or (or (or (or (or (or (or (or (or (or (or (or (or (or (or (or (or (or (or (or (or (or (or (or (or (or (or (or (or (or (or (or (or (or (or (or (or (or (or (or (or (or (or (or (or (or (or (or (or (or (or (or (or (or (or (or (or (or (or (or (or (or (or (or (or (or (or (or (or (or (or (or (or (or (or (or (or (or (or (or (or (or (or (or (or (or (or (or (or (or (or (or (or (or (or (or (or (or (or (or (or (or (or (or (or (or (or (or (or (or (or (or (or (or (or (or (or (or (or (or (or (or (or (or (or (or (or (or (or (or (or (or (or (or (or (or (or (or (or (or (or (or (or (or (or (or (or (or (or (or (or (or (or (or (or (or (or (or (or (or (or (or (or (or (or (or (or (or (or (or (or (or (or (or (or (or (or (or (or (or (or (or (or (or (or (or (or (or (or (or (or (or (or (or (or (or (or (or (or (or (or (or (or (or (or (or (or (or (or (or (or (or (or (or (or (or (or (or (or (or (or (or (or (or (or (or (or (or (or (or (or (or (or (or (or (or (or (or (or (or (or (or (or (or (or (or (or (or (or (or (or (or (or (or (or (or (or (or (or (or (or (or (or (or (or (or (or (or (or (or (or (or (or (or (or (or (or (or (or (or (or (or (or (or (or (or (or (or (or (or (or (or (or (or (or (or (or (or (or (or (or (or (or (or (or (or (or (or (or (or (or (or (or (or (or (or (or (or (or (or (or (or (or (or (or (or (or (or (or (or (or (or (or (or (or (or (or (or (or (or (or (or (or (or (or (or (or (or (or (or (or (or (or (or (or (or (or (or (or (or (or (or (or (or (or (or (or (or (or (or (or (or (or (or (or (or (or (or (or (or (or (or (or (or (or (or (or (or (or (or (or (or (or (or (or (or (or (or (or (or (or (or (or (or (or (or (or (or (or (or (or (or (or (or (or (or (or (or (or (or (or (or (or (or (or (or (or (or (or (or (or (or (or (or (or (or (or (or (or (or (or (or (or (or (or (or (or (or (or (or (or (= c_0 c_4) (= c_0 c_5)) (= c_0 c_6)) (= c_0 c_7)) (= c_0 c_10)) (= c_0 c_11)) (= c_0 c_13)) (= c_0 c_15)) (= c_0 c_16)) (= c_0 c_17)) (= c_0 c_18)) (= c_0 c_20)) (= c_0 c_23)) (= c_0 c_25)) (= c_0 c_26)) (= c_0 c_27)) (= c_0 c_28)) (= c_0 c_30)) (= c_0 c_32)) (= c_0 c_35)) (= c_0 c_36)) (= c_4 c_0)) (= c_4 c_5)) (= c_4 c_6)) (= c_4 c_7)) (= c_4 c_10)) (= c_4 c_11)) (= c_4 c_13)) (= c_4 c_15)) (= c_4 c_16)) (= c_4 c_17)) (= c_4 c_18)) (= c_4 c_20)) (= c_4 c_23)) (= c_4 c_25)) (= c_4 c_26)) (= c_4 c_27)) (= c_4 c_28)) (= c_4 c_30)) (= c_4 c_32)) (= c_4 c_35)) (= c_4 c_36)) (= c_5 c_0)) (= c_5 c_4)) (= c_5 c_6)) (= c_5 c_7)) (= c_5 c_10)) (= c_5 c_11)) (= c_5 c_13)) (= c_5 c_15)) (= c_5 c_16)) (= c_5 c_17)) (= c_5 c_18)) (= c_5 c_20)) (= c_5 c_23)) (= c_5 c_25)) (= c_5 c_26)) (= c_5 c_27)) (= c_5 c_28)) (= c_5 c_30)) (= c_5 c_32)) (= c_5 c_35)) (= c_5 c_36)) (= c_6 c_0)) (= c_6 c_4)) (= c_6 c_5)) (= c_6 c_7)) (= c_6 c_10)) (= c_6 c_11)) (= c_6 c_13)) (= c_6 c_15)) (= c_6 c_16)) (= c_6 c_17)) (= c_6 c_18)) (= c_6 c_20)) (= c_6 c_23)) (= c_6 c_25)) (= c_6 c_26)) (= c_6 c_27)) (= c_6 c_28)) (= c_6 c_30)) (= c_6 c_32)) (= c_6 c_35)) (= c_6 c_36)) (= c_7 c_0)) (= c_7 c_4)) (= c_7 c_5)) (= c_7 c_6)) (= c_7 c_10)) (= c_7 c_11)) (= c_7 c_13)) (= c_7 c_15)) (= c_7 c_16)) (= c_7 c_17)) (= c_7 c_18)) (= c_7 c_20)) (= c_7 c_23)) (= c_7 c_25)) (= c_7 c_26)) (= c_7 c_27)) (= c_7 c_28)) (= c_7 c_30)) (= c_7 c_32)) (= c_7 c_35)) (= c_7 c_36)) (= c_10 c_0)) (= c_10 c_4)) (= c_10 c_5)) (= c_10 c_6)) (= c_10 c_7)) (= c_10 c_11)) (= c_10 c_13)) (= c_10 c_15)) (= c_10 c_16)) (= c_10 c_17)) (= c_10 c_18)) (= c_10 c_20)) (= c_10 c_23)) (= c_10 c_25)) (= c_10 c_26)) (= c_10 c_27)) (= c_10 c_28)) (= c_10 c_30)) (= c_10 c_32)) (= c_10 c_35)) (= c_10 c_36)) (= c_11 c_0)) (= c_11 c_4)) (= c_11 c_5)) (= c_11 c_6)) (= c_11 c_7)) (= c_11 c_10)) (= c_11 c_13)) (= c_11 c_15)) (= c_11 c_16)) (= c_11 c_17)) (= c_11 c_18)) (= c_11 c_20)) (= c_11 c_23)) (= c_11 c_25)) (= c_11 c_26)) (= c_11 c_27)) (= c_11 c_28)) (= c_11 c_30)) (= c_11 c_32)) (= c_11 c_35)) (= c_11 c_36)) (= c_13 c_0)) (= c_13 c_4)) (= c_13 c_5)) (= c_13 c_6)) (= c_13 c_7)) (= c_13 c_10)) (= c_13 c_11)) (= c_13 c_15)) (= c_13 c_16)) (= c_13 c_17)) (= c_13 c_18)) (= c_13 c_20)) (= c_13 c_23)) (= c_13 c_25)) (= c_13 c_26)) (= c_13 c_27)) (= c_13 c_28)) (= c_13 c_30)) (= c_13 c_32)) (= c_13 c_35)) (= c_13 c_36)) (= c_15 c_0)) (= c_15 c_4)) (= c_15 c_5)) (= c_15 c_6)) (= c_15 c_7)) (= c_15 c_10)) (= c_15 c_11)) (= c_15 c_13)) (= c_15 c_16)) (= c_15 c_17)) (= c_15 c_18)) (= c_15 c_20)) (= c_15 c_23)) (= c_15 c_25)) (= c_15 c_26)) (= c_15 c_27)) (= c_15 c_28)) (= c_15 c_30)) (= c_15 c_32)) (= c_15 c_35)) (= c_15 c_36)) (= c_16 c_0)) (= c_16 c_4)) (= c_16 c_5)) (= c_16 c_6)) (= c_16 c_7)) (= c_16 c_10)) (= c_16 c_11)) (= c_16 c_13)) (= c_16 c_15)) (= c_16 c_17)) (= c_16 c_18)) (= c_16 c_20)) (= c_16 c_23)) (= c_16 c_25)) (= c_16 c_26)) (= c_16 c_27)) (= c_16 c_28)) (= c_16 c_30)) (= c_16 c_32)) (= c_16 c_35)) (= c_16 c_36)) (= c_17 c_0)) (= c_17 c_4)) (= c_17 c_5)) (= c_17 c_6)) (= c_17 c_7)) (= c_17 c_10)) (= c_17 c_11)) (= c_17 c_13)) (= c_17 c_15)) (= c_17 c_16)) (= c_17 c_18)) (= c_17 c_20)) (= c_17 c_23)) (= c_17 c_25)) (= c_17 c_26)) (= c_17 c_27)) (= c_17 c_28)) (= c_17 c_30)) (= c_17 c_32)) (= c_17 c_35)) (= c_17 c_36)) (= c_18 c_0)) (= c_18 c_4)) (= c_18 c_5)) (= c_18 c_6)) (= c_18 c_7)) (= c_18 c_10)) (= c_18 c_11)) (= c_18 c_13)) (= c_18 c_15)) (= c_18 c_16)) (= c_18 c_17)) (= c_18 c_20)) (= c_18 c_23)) (= c_18 c_25)) (= c_18 c_26)) (= c_18 c_27)) (= c_18 c_28)) (= c_18 c_30)) (= c_18 c_32)) (= c_18 c_35)) (= c_18 c_36)) (= c_20 c_0)) (= c_20 c_4)) (= c_20 c_5)) (= c_20 c_6)) (= c_20 c_7)) (= c_20 c_10)) (= c_20 c_11)) (= c_20 c_13)) (= c_20 c_15)) (= c_20 c_16)) (= c_20 c_17)) (= c_20 c_18)) (= c_20 c_23)) (= c_20 c_25)) (= c_20 c_26)) (= c_20 c_27)) (= c_20 c_28)) (= c_20 c_30)) (= c_20 c_32)) (= c_20 c_35)) (= c_20 c_36)) (= c_23 c_0)) (= c_23 c_4)) (= c_23 c_5)) (= c_23 c_6)) (= c_23 c_7)) (= c_23 c_10)) (= c_23 c_11)) (= c_23 c_13)) (= c_23 c_15)) (= c_23 c_16)) (= c_23 c_17)) (= c_23 c_18)) (= c_23 c_20)) (= c_23 c_25)) (= c_23 c_26)) (= c_23 c_27)) (= c_23 c_28)) (= c_23 c_30)) (= c_23 c_32)) (= c_23 c_35)) (= c_23 c_36)) (= c_25 c_0)) (= c_25 c_4)) (= c_25 c_5)) (= c_25 c_6)) (= c_25 c_7)) (= c_25 c_10)) (= c_25 c_11)) (= c_25 c_13)) (= c_25 c_15)) (= c_25 c_16)) (= c_25 c_17)) (= c_25 c_18)) (= c_25 c_20)) (= c_25 c_23)) (= c_25 c_26)) (= c_25 c_27)) (= c_25 c_28)) (= c_25 c_30)) (= c_25 c_32)) (= c_25 c_35)) (= c_25 c_36)) (= c_26 c_0)) (= c_26 c_4)) (= c_26 c_5)) (= c_26 c_6)) (= c_26 c_7)) (= c_26 c_10)) (= c_26 c_11)) (= c_26 c_13)) (= c_26 c_15)) (= c_26 c_16)) (= c_26 c_17)) (= c_26 c_18)) (= c_26 c_20)) (= c_26 c_23)) (= c_26 c_25)) (= c_26 c_27)) (= c_26 c_28)) (= c_26 c_30)) (= c_26 c_32)) (= c_26 c_35)) (= c_26 c_36)) (= c_27 c_0)) (= c_27 c_4)) (= c_27 c_5)) (= c_27 c_6)) (= c_27 c_7)) (= c_27 c_10)) (= c_27 c_11)) (= c_27 c_13)) (= c_27 c_15)) (= c_27 c_16)) (= c_27 c_17)) (= c_27 c_18)) (= c_27 c_20)) (= c_27 c_23)) (= c_27 c_25)) (= c_27 c_26)) (= c_27 c_28)) (= c_27 c_30)) (= c_27 c_32)) (= c_27 c_35)) (= c_27 c_36)) (= c_28 c_0)) (= c_28 c_4)) (= c_28 c_5)) (= c_28 c_6)) (= c_28 c_7)) (= c_28 c_10)) (= c_28 c_11)) (= c_28 c_13)) (= c_28 c_15)) (= c_28 c_16)) (= c_28 c_17)) (= c_28 c_18)) (= c_28 c_20)) (= c_28 c_23)) (= c_28 c_25)) (= c_28 c_26)) (= c_28 c_27)) (= c_28 c_30)) (= c_28 c_32)) (= c_28 c_35)) (= c_28 c_36)) (= c_30 c_0)) (= c_30 c_4)) (= c_30 c_5)) (= c_30 c_6)) (= c_30 c_7)) (= c_30 c_10)) (= c_30 c_11)) (= c_30 c_13)) (= c_30 c_15)) (= c_30 c_16)) (= c_30 c_17)) (= c_30 c_18)) (= c_30 c_20)) (= c_30 c_23)) (= c_30 c_25)) (= c_30 c_26)) (= c_30 c_27)) (= c_30 c_28)) (= c_30 c_32)) (= c_30 c_35)) (= c_30 c_36)) (= c_32 c_0)) (= c_32 c_4)) (= c_32 c_5)) (= c_32 c_6)) (= c_32 c_7)) (= c_32 c_10)) (= c_32 c_11)) (= c_32 c_13)) (= c_32 c_15)) (= c_32 c_16)) (= c_32 c_17)) (= c_32 c_18)) (= c_32 c_20)) (= c_32 c_23)) (= c_32 c_25)) (= c_32 c_26)) (= c_32 c_27)) (= c_32 c_28)) (= c_32 c_30)) (= c_32 c_35)) (= c_32 c_36)) (= c_35 c_0)) (= c_35 c_4)) (= c_35 c_5)) (= c_35 c_6)) (= c_35 c_7)) (= c_35 c_10)) (= c_35 c_11)) (= c_35 c_13)) (= c_35 c_15)) (= c_35 c_16)) (= c_35 c_17)) (= c_35 c_18)) (= c_35 c_20)) (= c_35 c_23)) (= c_35 c_25)) (= c_35 c_26)) (= c_35 c_27)) (= c_35 c_28)) (= c_35 c_30)) (= c_35 c_32)) (= c_35 c_36)) (= c_36 c_0)) (= c_36 c_4)) (= c_36 c_5)) (= c_36 c_6)) (= c_36 c_7)) (= c_36 c_10)) (= c_36 c_11)) (= c_36 c_13)) (= c_36 c_15)) (= c_36 c_16)) (= c_36 c_17)) (= c_36 c_18)) (= c_36 c_20)) (= c_36 c_23)) (= c_36 c_25)) (= c_36 c_26)) (= c_36 c_27)) (= c_36 c_28)) (= c_36 c_30)) (= c_36 c_32)) (= c_36 c_35))))
(assert (not (or (or (or (or (or (or (or (or (or (or (or (or (or (or (or (or (or (or (or (= c_8 c_9) (= c_8 c_19)) (= c_8 c_22)) (= c_8 c_29)) (= c_9 c_8)) (= c_9 c_19)) (= c_9 c_22)) (= c_9 c_29)) (= c_19 c_8)) (= c_19 c_9)) (= c_19 c_22)) (= c_19 c_29)) (= c_22 c_8)) (= c_22 c_9)) (= c_22 c_19)) (= c_22 c_29)) (= c_29 c_8)) (= c_29 c_9)) (= c_29 c_19)) (= c_29 c_22))))
(declare-fun w_0 () Int)
(declare-fun w_1 () Int)
(assert (and (and (< w_0 30) (>= w_0 0)) (and (< w_1 35) (>= w_1 0))))
(declare-fun w_2 () Int)
(declare-fun w_3 () Int)
(assert (and (and (< w_2 35) (>= w_2 0)) (and (< w_3 75) (>= w_3 0))))
(declare-fun w_4 () Int)
(declare-fun w_5 () Int)
(assert (and (and (< w_4 125) (>= w_4 0)) (and (< w_5 35) (>= w_5 0))))
(declare-fun w_6 () Int)
(declare-fun w_7 () Int)
(assert (and (and (< w_6 35) (>= w_6 0)) (and (< w_7 75) (>= w_7 0))))
(declare-fun w_8 () Int)
(assert (and (and (< w_6 35) (>= w_6 0)) (and (< w_8 40) (>= w_8 0))))
(declare-fun w_9 () Int)
(assert (and (and (< w_6 35) (>= w_6 0)) (and (< w_9 30) (>= w_9 0))))
(declare-fun w_10 () Int)
(declare-fun w_11 () Int)
(assert (and (and (< w_10 40) (>= w_10 0)) (and (< w_11 30) (>= w_11 0))))
(declare-fun w_12 () Int)
(declare-fun w_13 () Int)
(assert (and (and (< w_12 125) (>= w_12 0)) (and (< w_13 35) (>= w_13 0))))
(declare-fun w_14 () Int)
(declare-fun w_15 () Int)
(assert (and (and (< w_14 125) (>= w_14 0)) (and (< w_15 30) (>= w_15 0))))
(declare-fun w_16 () Int)
(declare-fun w_17 () Int)
(assert (and (and (< w_16 125) (>= w_16 0)) (and (< w_17 35) (>= w_17 0))))
(declare-fun w_18 () Int)
(declare-fun w_19 () Int)
(assert (and (and (< w_18 125) (>= w_18 0)) (and (< w_19 30) (>= w_19 0))))
(declare-fun w_20 () Int)
(declare-fun w_21 () Int)
(assert (and (and (< w_20 125) (>= w_20 0)) (and (< w_21 35) (>= w_21 0))))
(declare-fun w_22 () Int)
(declare-fun w_23 () Int)
(assert (and (and (< w_22 30) (>= w_22 0)) (and (< w_23 35) (>= w_23 0))))
(declare-fun w_24 () Int)
(declare-fun w_25 () Int)
(assert (and (and (< w_24 125) (>= w_24 0)) (and (< w_25 35) (>= w_25 0))))
(declare-fun w_26 () Int)
(declare-fun w_27 () Int)
(assert (and (and (< w_26 125) (>= w_26 0)) (and (< w_27 35) (>= w_27 0))))
(declare-fun w_28 () Int)
(declare-fun w_29 () Int)
(assert (and (and (< w_28 125) (>= w_28 0)) (and (< w_29 35) (>= w_29 0))))
(declare-fun w_30 () Int)
(declare-fun w_31 () Int)
(assert (and (and (< w_30 125) (>= w_30 0)) (and (< w_31 40) (>= w_31 0))))
(declare-fun w_32 () Int)
(declare-fun w_33 () Int)
(assert (and (and (< w_32 30) (>= w_32 0)) (and (< w_33 35) (>= w_33 0))))
(declare-fun w_34 () Int)
(declare-fun w_35 () Int)
(assert (and (and (< w_34 125) (>= w_34 0)) (and (< w_35 40) (>= w_35 0))))
(declare-fun w_36 () Int)
(declare-fun w_37 () Int)
(assert (and (and (< w_36 125) (>= w_36 0)) (and (< w_37 40) (>= w_37 0))))
(declare-fun w_38 () Int)
(declare-fun w_39 () Int)
(assert (and (and (< w_38 125) (>= w_38 0)) (and (< w_39 40) (>= w_39 0))))
(declare-fun w_40 () Int)
(declare-fun w_41 () Int)
(assert (and (and (< w_40 125) (>= w_40 0)) (and (< w_41 30) (>= w_41 0))))
(declare-fun w_42 () Int)
(declare-fun w_43 () Int)
(assert (and (and (< w_42 40) (>= w_42 0)) (and (< w_43 35) (>= w_43 0))))
(declare-fun w_44 () Int)
(declare-fun w_45 () Int)
(assert (and (and (< w_44 125) (>= w_44 0)) (and (< w_45 35) (>= w_45 0))))
(declare-fun w_46 () Int)
(declare-fun w_47 () Int)
(assert (and (and (< w_46 35) (>= w_46 0)) (and (< w_47 30) (>= w_47 0))))
(declare-fun w_48 () Int)
(assert (and (and (< w_46 35) (>= w_46 0)) (and (< w_48 30) (>= w_48 0))))
(declare-fun w_49 () Int)
(assert (and (and (< w_46 35) (>= w_46 0)) (and (< w_49 40) (>= w_49 0))))
(declare-fun w_50 () Int)
(assert (and (and (< w_46 35) (>= w_46 0)) (and (< w_50 75) (>= w_50 0))))
(declare-fun w_51 () Int)
(declare-fun w_52 () Int)
(assert (and (and (< w_51 30) (>= w_51 0)) (and (< w_52 35) (>= w_52 0))))
(declare-fun w_53 () Int)
(declare-fun w_54 () Int)
(assert (and (and (< w_53 125) (>= w_53 0)) (and (< w_54 35) (>= w_54 0))))
(declare-fun w_55 () Int)
(declare-fun w_56 () Int)
(assert (and (and (< w_55 125) (>= w_55 0)) (and (< w_56 35) (>= w_56 0))))
(declare-fun w_57 () Int)
(declare-fun w_58 () Int)
(assert (and (and (< w_57 30) (>= w_57 0)) (and (< w_58 35) (>= w_58 0))))
(declare-fun w_59 () Int)
(declare-fun w_60 () Int)
(assert (and (and (< w_59 125) (>= w_59 0)) (and (< w_60 30) (>= w_60 0))))
(declare-fun w_61 () Int)
(declare-fun w_62 () Int)
(assert (and (and (< w_61 125) (>= w_61 0)) (and (< w_62 35) (>= w_62 0))))
(declare-fun w_63 () Int)
(declare-fun w_64 () Int)
(assert (and (and (< w_63 125) (>= w_63 0)) (and (< w_64 35) (>= w_64 0))))
(declare-fun w_65 () Int)
(declare-fun w_66 () Int)
(assert (and (and (< w_65 35) (>= w_65 0)) (and (< w_66 30) (>= w_66 0))))
(declare-fun w_67 () Int)
(assert (and (and (< w_65 35) (>= w_65 0)) (and (< w_67 30) (>= w_67 0))))
(declare-fun w_68 () Int)
(assert (and (and (< w_65 35) (>= w_65 0)) (and (< w_68 75) (>= w_68 0))))
(declare-fun w_69 () Int)
(declare-fun w_70 () Int)
(assert (and (and (< w_69 125) (>= w_69 0)) (and (< w_70 35) (>= w_70 0))))
(declare-fun w_71 () Int)
(declare-fun w_72 () Int)
(assert (and (and (< w_71 125) (>= w_71 0)) (and (< w_72 35) (>= w_72 0))))
(assert (or (or (= w_37 w_35) (= w_37 w_10)) (= w_37 w_8)))
(assert (or (or (or (or (= w_72 w_70) (= w_72 w_52)) (= w_72 w_45)) (= w_72 w_27)) (= w_72 w_2)))
(assert (or (= w_67 w_57) (= w_67 w_11)))
(assert (or (= w_48 w_41) (= w_48 w_22)))
(assert (or (or (= w_49 w_42) (= w_49 w_39)) (= w_49 w_31)))
(assert (or (= w_60 w_51) (= w_60 w_47)))
(assert (or (= w_32 w_19) (= w_32 w_9)))
(assert (or (or (or (or (= w_64 w_43) (= w_64 w_29)) (= w_64 w_6)) (= w_64 w_5)) (= w_64 w_1)))
(assert (or (= w_66 w_15) (= w_66 w_0)))
(assert (or (or (or (or (= w_65 w_62) (= w_65 w_54)) (= w_65 w_33)) (= w_65 w_23)) (= w_65 w_13)))
(assert (or (or (or (or (= w_58 w_56) (= w_58 w_46)) (= w_58 w_25)) (= w_58 w_21)) (= w_58 w_17)))
(check-sat)
(get-model)
